c clasp version 2.1.4
c Reading from ...arks/27_Nodes/PBencd_EuclideanCost.opb
c Solving...
o 794
o 792
o 785
o 779
o 777
o 775
o 772
o 770
o 758
o 747
o 728
o 719
o 717
o 712
o 702
o 699
o 696
o 695
o 686
o 676
o 672
o 663
o 654
o 653
o 651
o 646
o 644
o 634
o 631
o 629
o 621
o 602
o 598
o 591
o 585
o 581
o 577
o 575
o 564
o 559
o 554
o 546
o 544
o 542
o 535
o 532
o 519
o 513
o 512
o 511
o 510
o 490
o 489
o 476
o 470
o 464
o 457
o 449
o 446
o 440
o 434
o 432
o 429
